number of jobs, number of machines, initial seed, upper bound and lower bound :
          20           5   873654221        1278        1232
processing times :
54 83 15 71 77 36 53 38 27 87 76 91 14 29 12 77 32 87 68 94
79 03 11 99 56 70 99 60 05 56 03 61 73 75 47 14 21 86 05 77
16 89 49 15 89 45 60 23 57 64 07 01 63 41 63 47 26 75 77 40
66 58 31 68 78 91 13 59 49 85 85 09 39 41 56 40 54 77 51 31
58 56 20 85 53 35 53 41 69 13 86 72 08 49 47 87 58 18 68 28